p tw 1840 27601 7 
1 8 
1 361 
2 9 
2 10 
2 362 
3 7 
3 10 
3 961 
4 8 
4 9 
4 962 
5 7 
5 9 
5 1011 
6 8 
6 10 
6 1012 
11 17 
11 18 
11 771 
12 19 
12 20 
12 772 
13 17 
13 20 
13 1211 
14 18 
14 19 
14 1212 
15 17 
15 19 
15 1551 
16 18 
16 20 
16 1552 
21 27 
21 28 
21 301 
22 29 
22 30 
22 302 
23 27 
23 30 
23 781 
24 28 
24 29 
24 782 
25 27 
25 29 
25 1341 
26 28 
26 30 
26 1342 
31 37 
31 38 
31 371 
32 39 
32 40 
32 372 
33 37 
33 40 
33 791 
34 38 
34 39 
34 792 
35 37 
35 39 
35 1291 
36 38 
36 40 
36 1292 
41 47 
41 48 
41 521 
42 49 
42 50 
42 522 
43 47 
43 50 
43 881 
44 48 
44 49 
44 882 
45 47 
45 49 
45 1541 
46 48 
46 50 
46 1542 
51 57 
51 58 
51 871 
52 59 
52 60 
52 872 
53 57 
53 60 
53 1091 
54 58 
54 59 
54 1092 
55 57 
55 59 
55 1331 
56 58 
56 60 
56 1332 
61 67 
61 68 
61 121 
62 69 
62 70 
62 122 
63 67 
63 70 
63 711 
64 68 
64 69 
64 712 
65 67 
65 69 
65 761 
66 68 
66 70 
66 762 
71 77 
71 78 
71 181 
72 79 
72 80 
72 182 
73 77 
73 80 
73 351 
74 78 
74 79 
74 352 
75 77 
75 79 
75 831 
76 78 
76 80 
76 832 
81 87 
81 88 
81 291 
82 89 
82 90 
82 292 
83 87 
83 90 
83 783 
84 88 
84 89 
84 784 
85 87 
85 89 
85 1431 
86 88 
86 90 
86 1432 
91 97 
91 98 
91 471 
92 99 
92 100 
92 472 
93 97 
93 100 
93 681 
94 98 
94 99 
94 682 
95 97 
95 99 
95 1491 
96 98 
96 100 
96 1492 
101 107 
101 108 
101 701 
102 109 
102 110 
102 702 
103 107 
103 110 
103 1381 
104 108 
104 109 
104 1382 
105 107 
105 109 
105 1493 
106 108 
106 110 
106 1494 
111 117 
111 118 
111 391 
112 119 
112 120 
112 392 
113 117 
113 120 
113 861 
114 118 
114 119 
114 862 
115 117 
115 119 
115 1261 
116 118 
116 120 
116 1262 
121 127 
121 128 
122 129 
122 130 
123 127 
123 130 
123 211 
124 128 
124 129 
124 212 
125 127 
125 129 
125 611 
126 128 
126 130 
126 612 
131 137 
131 138 
131 271 
132 139 
132 140 
132 272 
133 137 
133 140 
133 1383 
134 138 
134 139 
134 1384 
135 137 
135 139 
135 1751 
136 138 
136 140 
136 1752 
141 147 
141 148 
141 511 
142 149 
142 150 
142 512 
143 147 
143 150 
143 1471 
144 148 
144 149 
144 1472 
145 147 
145 149 
145 1701 
146 148 
146 150 
146 1702 
151 157 
151 158 
151 353 
152 159 
152 160 
152 354 
153 157 
153 160 
153 451 
154 158 
154 159 
154 452 
155 157 
155 159 
155 1171 
156 158 
156 160 
156 1172 
161 167 
161 168 
161 473 
162 169 
162 170 
162 474 
163 167 
163 170 
163 1721 
164 168 
164 169 
164 1722 
165 167 
165 169 
165 1753 
166 168 
166 170 
166 1754 
171 177 
171 178 
171 213 
172 179 
172 180 
172 214 
173 177 
173 180 
173 821 
174 178 
174 179 
174 822 
175 177 
175 179 
175 1591 
176 178 
176 180 
176 1592 
181 187 
181 188 
182 189 
182 190 
183 187 
183 190 
183 941 
184 188 
184 189 
184 942 
185 187 
185 189 
185 1571 
186 188 
186 190 
186 1572 
191 197 
191 198 
191 561 
192 199 
192 200 
192 562 
193 197 
193 200 
193 591 
194 198 
194 199 
194 592 
195 197 
195 199 
195 801 
196 198 
196 200 
196 802 
201 207 
201 208 
201 873 
202 209 
202 210 
202 874 
203 207 
203 210 
203 1391 
204 208 
204 209 
204 1392 
205 207 
205 209 
205 1461 
206 208 
206 210 
206 1462 
211 217 
211 218 
212 219 
212 220 
213 217 
213 220 
214 218 
214 219 
215 217 
215 219 
215 501 
216 218 
216 220 
216 502 
221 227 
221 228 
221 581 
222 229 
222 230 
222 582 
223 227 
223 230 
223 651 
224 228 
224 229 
224 652 
225 227 
225 229 
225 1121 
226 228 
226 230 
226 1122 
231 237 
231 238 
231 641 
232 239 
232 240 
232 642 
233 237 
233 240 
233 1201 
234 238 
234 239 
234 1202 
235 237 
235 239 
235 1221 
236 238 
236 240 
236 1222 
241 247 
241 248 
241 411 
242 249 
242 250 
242 412 
243 247 
243 250 
243 475 
244 248 
244 249 
244 476 
245 247 
245 249 
245 921 
246 248 
246 250 
246 922 
251 257 
251 258 
251 793 
252 259 
252 260 
252 794 
253 257 
253 260 
253 1161 
254 258 
254 259 
254 1162 
255 257 
255 259 
255 1311 
256 258 
256 260 
256 1312 
261 267 
261 268 
261 883 
262 269 
262 270 
262 884 
263 267 
263 270 
263 1041 
264 268 
264 269 
264 1042 
265 267 
265 269 
265 1321 
266 268 
266 270 
266 1322 
271 277 
271 278 
272 279 
272 280 
273 277 
273 280 
273 1441 
274 278 
274 279 
274 1442 
275 277 
275 279 
275 1691 
276 278 
276 280 
276 1692 
281 287 
281 288 
281 311 
282 289 
282 290 
282 312 
283 287 
283 290 
283 341 
284 288 
284 289 
284 342 
285 287 
285 289 
285 1281 
286 288 
286 290 
286 1282 
291 297 
291 298 
292 299 
292 300 
293 297 
293 300 
293 503 
294 298 
294 299 
294 504 
295 297 
295 299 
295 1511 
296 298 
296 300 
296 1512 
301 307 
301 308 
302 309 
302 310 
303 307 
303 310 
303 531 
304 308 
304 309 
304 532 
305 307 
305 309 
305 1421 
306 308 
306 310 
306 1422 
311 317 
311 318 
312 319 
312 320 
313 317 
313 320 
313 713 
314 318 
314 319 
314 714 
315 317 
315 319 
315 1061 
316 318 
316 320 
316 1062 
321 327 
321 328 
321 1141 
322 329 
322 330 
322 1142 
323 327 
323 330 
323 1223 
324 328 
324 329 
324 1224 
325 327 
325 329 
325 1801 
326 328 
326 330 
326 1802 
331 337 
331 338 
331 343 
332 339 
332 340 
332 344 
333 337 
333 340 
333 991 
334 338 
334 339 
334 992 
335 337 
335 339 
335 1111 
336 338 
336 340 
336 1112 
341 347 
341 348 
342 349 
342 350 
343 347 
343 350 
344 348 
344 349 
345 347 
345 349 
345 1401 
346 348 
346 350 
346 1402 
351 357 
351 358 
352 359 
352 360 
353 357 
353 360 
354 358 
354 359 
355 357 
355 359 
355 1553 
356 358 
356 360 
356 1554 
361 367 
361 368 
362 369 
362 370 
363 367 
363 370 
363 1671 
364 368 
364 369 
364 1672 
365 367 
365 369 
365 1761 
366 368 
366 370 
366 1762 
371 377 
371 378 
372 379 
372 380 
373 377 
373 380 
373 583 
374 378 
374 379 
374 584 
375 377 
375 379 
375 863 
376 378 
376 380 
376 864 
381 387 
381 388 
381 691 
382 389 
382 390 
382 692 
383 387 
383 390 
383 1393 
384 388 
384 389 
384 1394 
385 387 
385 389 
385 1433 
386 388 
386 390 
386 1434 
391 397 
391 398 
392 399 
392 400 
393 397 
393 400 
393 1203 
394 398 
394 399 
394 1204 
395 397 
395 399 
395 1641 
396 398 
396 400 
396 1642 
401 407 
401 408 
401 993 
402 409 
402 410 
402 994 
403 407 
403 410 
403 1531 
404 408 
404 409 
404 1532 
405 407 
405 409 
405 1811 
406 408 
406 410 
406 1812 
411 417 
411 418 
412 419 
412 420 
413 417 
413 420 
413 1101 
414 418 
414 419 
414 1102 
415 417 
415 419 
415 1791 
416 418 
416 420 
416 1792 
421 427 
421 428 
421 731 
422 429 
422 430 
422 732 
423 427 
423 430 
423 841 
424 428 
424 429 
424 842 
425 427 
425 429 
425 1611 
426 428 
426 430 
426 1612 
431 437 
431 438 
431 751 
432 439 
432 440 
432 752 
433 437 
433 440 
433 823 
434 438 
434 439 
434 824 
435 437 
435 439 
435 1581 
436 438 
436 440 
436 1582 
441 447 
441 448 
441 851 
442 449 
442 450 
442 852 
443 447 
443 450 
443 911 
444 448 
444 449 
444 912 
445 447 
445 449 
445 1241 
446 448 
446 450 
446 1242 
451 457 
451 458 
452 459 
452 460 
453 457 
453 460 
453 481 
454 458 
454 459 
454 482 
455 457 
455 459 
455 825 
456 458 
456 460 
456 826 
461 467 
461 468 
461 1151 
462 469 
462 470 
462 1152 
463 467 
463 470 
463 1231 
464 468 
464 469 
464 1232 
465 467 
465 469 
465 1813 
466 468 
466 470 
466 1814 
471 477 
471 478 
472 479 
472 480 
473 477 
473 480 
474 478 
474 479 
475 477 
475 479 
476 478 
476 480 
481 487 
481 488 
482 489 
482 490 
483 487 
483 490 
483 1143 
484 488 
484 489 
484 1144 
485 487 
485 489 
485 1463 
486 488 
486 490 
486 1464 
491 497 
491 498 
491 613 
492 499 
492 500 
492 614 
493 497 
493 500 
493 741 
494 498 
494 499 
494 742 
495 497 
495 499 
495 1771 
496 498 
496 500 
496 1772 
501 507 
501 508 
502 509 
502 510 
503 507 
503 510 
504 508 
504 509 
505 507 
505 509 
505 1601 
506 508 
506 510 
506 1602 
511 517 
511 518 
512 519 
512 520 
513 517 
513 520 
513 551 
514 518 
514 519 
514 552 
515 517 
515 519 
515 913 
516 518 
516 520 
516 914 
521 527 
521 528 
522 529 
522 530 
523 527 
523 530 
523 803 
524 528 
524 529 
524 804 
525 527 
525 529 
525 1283 
526 528 
526 530 
526 1284 
531 537 
531 538 
532 539 
532 540 
533 537 
533 540 
533 643 
534 538 
534 539 
534 644 
535 537 
535 539 
535 1481 
536 538 
536 540 
536 1482 
541 547 
541 548 
541 553 
542 549 
542 550 
542 554 
543 547 
543 550 
543 721 
544 548 
544 549 
544 722 
545 547 
545 549 
545 943 
546 548 
546 550 
546 944 
551 557 
551 558 
552 559 
552 560 
553 557 
553 560 
554 558 
554 559 
555 557 
555 559 
555 1651 
556 558 
556 560 
556 1652 
561 567 
561 568 
562 569 
562 570 
563 567 
563 570 
563 763 
564 568 
564 569 
564 764 
565 567 
565 569 
565 1703 
566 568 
566 570 
566 1704 
571 577 
571 578 
571 703 
572 579 
572 580 
572 704 
573 577 
573 580 
573 1181 
574 578 
574 579 
574 1182 
575 577 
575 579 
575 1593 
576 578 
576 580 
576 1594 
581 587 
581 588 
582 589 
582 590 
583 587 
583 590 
584 588 
584 589 
585 587 
585 589 
585 1711 
586 588 
586 590 
586 1712 
591 597 
591 598 
592 599 
592 600 
593 597 
593 600 
593 621 
594 598 
594 599 
594 622 
595 597 
595 599 
595 931 
596 598 
596 600 
596 932 
601 607 
601 608 
601 631 
602 609 
602 610 
602 632 
603 607 
603 610 
603 891 
604 608 
604 609 
604 892 
605 607 
605 609 
605 1013 
606 608 
606 610 
606 1014 
611 617 
611 618 
612 619 
612 620 
613 617 
613 620 
614 618 
614 619 
615 617 
615 619 
615 1243 
616 618 
616 620 
616 1244 
621 627 
621 628 
622 629 
622 630 
623 627 
623 630 
623 971 
624 628 
624 629 
624 972 
625 627 
625 629 
625 1631 
626 628 
626 630 
626 1632 
631 637 
631 638 
632 639 
632 640 
633 637 
633 640 
633 1063 
634 638 
634 639 
634 1064 
635 637 
635 639 
635 1483 
636 638 
636 640 
636 1484 
641 647 
641 648 
642 649 
642 650 
643 647 
643 650 
644 648 
644 649 
645 647 
645 649 
645 1473 
646 648 
646 650 
646 1474 
651 657 
651 658 
652 659 
652 660 
653 657 
653 660 
653 1403 
654 658 
654 659 
654 1404 
655 657 
655 659 
655 1521 
656 658 
656 660 
656 1522 
661 667 
661 668 
661 1173 
662 669 
662 670 
662 1174 
663 667 
663 670 
663 1205 
664 668 
664 669 
664 1206 
665 667 
665 669 
665 1233 
666 668 
666 670 
666 1234 
671 677 
671 678 
671 723 
672 679 
672 680 
672 724 
673 677 
673 680 
673 1465 
674 678 
674 679 
674 1466 
675 677 
675 679 
675 1793 
676 678 
676 680 
676 1794 
681 687 
681 688 
682 689 
682 690 
683 687 
683 690 
683 923 
684 688 
684 689 
684 924 
685 687 
685 689 
685 1661 
686 688 
686 690 
686 1662 
691 697 
691 698 
692 699 
692 700 
693 697 
693 700 
693 915 
694 698 
694 699 
694 916 
695 697 
695 699 
695 1051 
696 698 
696 700 
696 1052 
701 707 
701 708 
702 709 
702 710 
703 707 
703 710 
704 708 
704 709 
705 707 
705 709 
705 1081 
706 708 
706 710 
706 1082 
711 717 
711 718 
712 719 
712 720 
713 717 
713 720 
714 718 
714 719 
715 717 
715 719 
715 981 
716 718 
716 720 
716 982 
721 727 
721 728 
722 729 
722 730 
723 727 
723 730 
724 728 
724 729 
725 727 
725 729 
725 1093 
726 728 
726 730 
726 1094 
731 737 
731 738 
732 739 
732 740 
733 737 
733 740 
733 1573 
734 738 
734 739 
734 1574 
735 737 
735 739 
735 1741 
736 738 
736 740 
736 1742 
741 747 
741 748 
742 749 
742 750 
743 747 
743 750 
743 1293 
744 748 
744 749 
744 1294 
745 747 
745 749 
745 1633 
746 748 
746 750 
746 1634 
751 757 
751 758 
752 759 
752 760 
753 757 
753 760 
753 1723 
754 758 
754 759 
754 1724 
755 757 
755 759 
755 1743 
756 758 
756 760 
756 1744 
761 767 
761 768 
762 769 
762 770 
763 767 
763 770 
764 768 
764 769 
765 767 
765 769 
765 1755 
766 768 
766 770 
766 1756 
771 777 
771 778 
772 779 
772 780 
773 777 
773 780 
773 963 
774 778 
774 779 
774 964 
775 777 
775 779 
775 1523 
776 778 
776 780 
776 1524 
781 787 
781 788 
782 789 
782 790 
783 787 
783 790 
784 788 
784 789 
785 787 
785 789 
785 965 
786 788 
786 790 
786 966 
791 797 
791 798 
792 799 
792 800 
793 797 
793 800 
794 798 
794 799 
795 797 
795 799 
795 1773 
796 798 
796 800 
796 1774 
801 807 
801 808 
802 809 
802 810 
803 807 
803 810 
804 808 
804 809 
805 807 
805 809 
805 1153 
806 808 
806 810 
806 1154 
811 817 
811 818 
811 1043 
812 819 
812 820 
812 1044 
813 817 
813 820 
813 1333 
814 818 
814 819 
814 1334 
815 817 
815 819 
815 1343 
816 818 
816 820 
816 1344 
821 827 
821 828 
822 829 
822 830 
823 827 
823 830 
824 828 
824 829 
825 827 
825 829 
826 828 
826 830 
831 837 
831 838 
832 839 
832 840 
833 837 
833 840 
833 1083 
834 838 
834 839 
834 1084 
835 837 
835 839 
835 1821 
836 838 
836 840 
836 1822 
841 847 
841 848 
842 849 
842 850 
843 847 
843 850 
843 1245 
844 848 
844 849 
844 1246 
845 847 
845 849 
845 1395 
846 848 
846 850 
846 1396 
851 857 
851 858 
852 859 
852 860 
853 857 
853 860 
853 1705 
854 858 
854 859 
854 1706 
855 857 
855 859 
855 1745 
856 858 
856 860 
856 1746 
861 867 
861 868 
862 869 
862 870 
863 867 
863 870 
864 868 
864 869 
865 867 
865 869 
865 1251 
866 868 
866 870 
866 1252 
871 877 
871 878 
872 879 
872 880 
873 877 
873 880 
874 878 
874 879 
875 877 
875 879 
875 1183 
876 878 
876 880 
876 1184 
881 887 
881 888 
882 889 
882 890 
883 887 
883 890 
884 888 
884 889 
885 887 
885 889 
885 1613 
886 888 
886 890 
886 1614 
891 897 
891 898 
892 899 
892 900 
893 897 
893 900 
893 1351 
894 898 
894 899 
894 1352 
895 897 
895 899 
895 1485 
896 898 
896 900 
896 1486 
901 907 
901 908 
901 1131 
902 909 
902 910 
902 1132 
903 907 
903 910 
903 1313 
904 908 
904 909 
904 1314 
905 907 
905 909 
905 1353 
906 908 
906 910 
906 1354 
911 917 
911 918 
912 919 
912 920 
913 917 
913 920 
914 918 
914 919 
915 917 
915 919 
916 918 
916 920 
921 927 
921 928 
922 929 
922 930 
923 927 
923 930 
924 928 
924 929 
925 927 
925 929 
925 1583 
926 928 
926 930 
926 1584 
931 937 
931 938 
932 939 
932 940 
933 937 
933 940 
933 1513 
934 938 
934 939 
934 1514 
935 937 
935 939 
935 1831 
936 938 
936 940 
936 1832 
941 947 
941 948 
942 949 
942 950 
943 947 
943 950 
944 948 
944 949 
945 947 
945 949 
945 1263 
946 948 
946 950 
946 1264 
951 957 
951 958 
951 1053 
952 959 
952 960 
952 1054 
953 957 
953 960 
953 1133 
954 958 
954 959 
954 1134 
955 957 
955 959 
955 1361 
956 958 
956 960 
956 1362 
961 967 
961 968 
962 969 
962 970 
963 967 
963 970 
964 968 
964 969 
965 967 
965 969 
966 968 
966 970 
971 977 
971 978 
972 979 
972 980 
973 977 
973 980 
973 1113 
974 978 
974 979 
974 1114 
975 977 
975 979 
975 1621 
976 978 
976 980 
976 1622 
981 987 
981 988 
982 989 
982 990 
983 987 
983 990 
983 1561 
984 988 
984 989 
984 1562 
985 987 
985 989 
985 1623 
986 988 
986 990 
986 1624 
991 997 
991 998 
992 999 
992 1000 
993 997 
993 1000 
994 998 
994 999 
995 997 
995 999 
995 1411 
996 998 
996 1000 
996 1412 
1001 1007 
1001 1008 
1001 1585 
1002 1009 
1002 1010 
1002 1586 
1003 1007 
1003 1010 
1003 1603 
1004 1008 
1004 1009 
1004 1604 
1005 1007 
1005 1009 
1005 1673 
1006 1008 
1006 1010 
1006 1674 
1011 1017 
1011 1018 
1012 1019 
1012 1020 
1013 1017 
1013 1020 
1014 1018 
1014 1019 
1015 1017 
1015 1019 
1015 1155 
1016 1018 
1016 1020 
1016 1156 
1021 1027 
1021 1028 
1021 1163 
1022 1029 
1022 1030 
1022 1164 
1023 1027 
1023 1030 
1023 1763 
1024 1028 
1024 1029 
1024 1764 
1025 1027 
1025 1029 
1025 1823 
1026 1028 
1026 1030 
1026 1824 
1031 1037 
1031 1038 
1031 1135 
1032 1039 
1032 1040 
1032 1136 
1033 1037 
1033 1040 
1033 1385 
1034 1038 
1034 1039 
1034 1386 
1035 1037 
1035 1039 
1035 1515 
1036 1038 
1036 1040 
1036 1516 
1041 1047 
1041 1048 
1042 1049 
1042 1050 
1043 1047 
1043 1050 
1044 1048 
1044 1049 
1045 1047 
1045 1049 
1045 1525 
1046 1048 
1046 1050 
1046 1526 
1051 1057 
1051 1058 
1052 1059 
1052 1060 
1053 1057 
1053 1060 
1054 1058 
1054 1059 
1055 1057 
1055 1059 
1055 1371 
1056 1058 
1056 1060 
1056 1372 
1061 1067 
1061 1068 
1062 1069 
1062 1070 
1063 1067 
1063 1070 
1064 1068 
1064 1069 
1065 1067 
1065 1069 
1065 1443 
1066 1068 
1066 1070 
1066 1444 
1071 1077 
1071 1078 
1071 1123 
1072 1079 
1072 1080 
1072 1124 
1073 1077 
1073 1080 
1073 1405 
1074 1078 
1074 1079 
1074 1406 
1075 1077 
1075 1079 
1075 1413 
1076 1078 
1076 1080 
1076 1414 
1081 1087 
1081 1088 
1082 1089 
1082 1090 
1083 1087 
1083 1090 
1084 1088 
1084 1089 
1085 1087 
1085 1089 
1085 1213 
1086 1088 
1086 1090 
1086 1214 
1091 1097 
1091 1098 
1092 1099 
1092 1100 
1093 1097 
1093 1100 
1094 1098 
1094 1099 
1095 1097 
1095 1099 
1095 1501 
1096 1098 
1096 1100 
1096 1502 
1101 1107 
1101 1108 
1102 1109 
1102 1110 
1103 1107 
1103 1110 
1103 1323 
1104 1108 
1104 1109 
1104 1324 
1105 1107 
1105 1109 
1105 1781 
1106 1108 
1106 1110 
1106 1782 
1111 1117 
1111 1118 
1112 1119 
1112 1120 
1113 1117 
1113 1120 
1114 1118 
1114 1119 
1115 1117 
1115 1119 
1115 1725 
1116 1118 
1116 1120 
1116 1726 
1121 1127 
1121 1128 
1122 1129 
1122 1130 
1123 1127 
1123 1130 
1124 1128 
1124 1129 
1125 1127 
1125 1129 
1125 1533 
1126 1128 
1126 1130 
1126 1534 
1131 1137 
1131 1138 
1132 1139 
1132 1140 
1133 1137 
1133 1140 
1134 1138 
1134 1139 
1135 1137 
1135 1139 
1136 1138 
1136 1140 
1141 1147 
1141 1148 
1142 1149 
1142 1150 
1143 1147 
1143 1150 
1144 1148 
1144 1149 
1145 1147 
1145 1149 
1145 1165 
1146 1148 
1146 1150 
1146 1166 
1151 1157 
1151 1158 
1152 1159 
1152 1160 
1153 1157 
1153 1160 
1154 1158 
1154 1159 
1155 1157 
1155 1159 
1156 1158 
1156 1160 
1161 1167 
1161 1168 
1162 1169 
1162 1170 
1163 1167 
1163 1170 
1164 1168 
1164 1169 
1165 1167 
1165 1169 
1166 1168 
1166 1170 
1171 1177 
1171 1178 
1172 1179 
1172 1180 
1173 1177 
1173 1180 
1174 1178 
1174 1179 
1175 1177 
1175 1179 
1175 1833 
1176 1178 
1176 1180 
1176 1834 
1181 1187 
1181 1188 
1182 1189 
1182 1190 
1183 1187 
1183 1190 
1184 1188 
1184 1189 
1185 1187 
1185 1189 
1185 1301 
1186 1188 
1186 1190 
1186 1302 
1191 1197 
1191 1198 
1191 1253 
1192 1199 
1192 1200 
1192 1254 
1193 1197 
1193 1200 
1193 1555 
1194 1198 
1194 1199 
1194 1556 
1195 1197 
1195 1199 
1195 1625 
1196 1198 
1196 1200 
1196 1626 
1201 1207 
1201 1208 
1202 1209 
1202 1210 
1203 1207 
1203 1210 
1204 1208 
1204 1209 
1205 1207 
1205 1209 
1206 1208 
1206 1210 
1211 1217 
1211 1218 
1212 1219 
1212 1220 
1213 1217 
1213 1220 
1214 1218 
1214 1219 
1215 1217 
1215 1219 
1215 1373 
1216 1218 
1216 1220 
1216 1374 
1221 1227 
1221 1228 
1222 1229 
1222 1230 
1223 1227 
1223 1230 
1224 1228 
1224 1229 
1225 1227 
1225 1229 
1225 1563 
1226 1228 
1226 1230 
1226 1564 
1231 1237 
1231 1238 
1232 1239 
1232 1240 
1233 1237 
1233 1240 
1234 1238 
1234 1239 
1235 1237 
1235 1239 
1235 1295 
1236 1238 
1236 1240 
1236 1296 
1241 1247 
1241 1248 
1242 1249 
1242 1250 
1243 1247 
1243 1250 
1244 1248 
1244 1249 
1245 1247 
1245 1249 
1246 1248 
1246 1250 
1251 1257 
1251 1258 
1252 1259 
1252 1260 
1253 1257 
1253 1260 
1254 1258 
1254 1259 
1255 1257 
1255 1259 
1255 1503 
1256 1258 
1256 1260 
1256 1504 
1261 1267 
1261 1268 
1262 1269 
1262 1270 
1263 1267 
1263 1270 
1264 1268 
1264 1269 
1265 1267 
1265 1269 
1265 1731 
1266 1268 
1266 1270 
1266 1732 
1271 1277 
1271 1278 
1271 1303 
1272 1279 
1272 1280 
1272 1304 
1273 1277 
1273 1280 
1273 1675 
1274 1278 
1274 1279 
1274 1676 
1275 1277 
1275 1279 
1275 1835 
1276 1278 
1276 1280 
1276 1836 
1281 1287 
1281 1288 
1282 1289 
1282 1290 
1283 1287 
1283 1290 
1284 1288 
1284 1289 
1285 1287 
1285 1289 
1285 1713 
1286 1288 
1286 1290 
1286 1714 
1291 1297 
1291 1298 
1292 1299 
1292 1300 
1293 1297 
1293 1300 
1294 1298 
1294 1299 
1295 1297 
1295 1299 
1296 1298 
1296 1300 
1301 1307 
1301 1308 
1302 1309 
1302 1310 
1303 1307 
1303 1310 
1304 1308 
1304 1309 
1305 1307 
1305 1309 
1305 1565 
1306 1308 
1306 1310 
1306 1566 
1311 1317 
1311 1318 
1312 1319 
1312 1320 
1313 1317 
1313 1320 
1314 1318 
1314 1319 
1315 1317 
1315 1319 
1315 1693 
1316 1318 
1316 1320 
1316 1694 
1321 1327 
1321 1328 
1322 1329 
1322 1330 
1323 1327 
1323 1330 
1324 1328 
1324 1329 
1325 1327 
1325 1329 
1325 1415 
1326 1328 
1326 1330 
1326 1416 
1331 1337 
1331 1338 
1332 1339 
1332 1340 
1333 1337 
1333 1340 
1334 1338 
1334 1339 
1335 1337 
1335 1339 
1335 1783 
1336 1338 
1336 1340 
1336 1784 
1341 1347 
1341 1348 
1342 1349 
1342 1350 
1343 1347 
1343 1350 
1344 1348 
1344 1349 
1345 1347 
1345 1349 
1345 1363 
1346 1348 
1346 1350 
1346 1364 
1351 1357 
1351 1358 
1352 1359 
1352 1360 
1353 1357 
1353 1360 
1354 1358 
1354 1359 
1355 1357 
1355 1359 
1355 1423 
1356 1358 
1356 1360 
1356 1424 
1361 1367 
1361 1368 
1362 1369 
1362 1370 
1363 1367 
1363 1370 
1364 1368 
1364 1369 
1365 1367 
1365 1369 
1365 1681 
1366 1368 
1366 1370 
1366 1682 
1371 1377 
1371 1378 
1372 1379 
1372 1380 
1373 1377 
1373 1380 
1374 1378 
1374 1379 
1375 1377 
1375 1379 
1375 1451 
1376 1378 
1376 1380 
1376 1452 
1381 1387 
1381 1388 
1382 1389 
1382 1390 
1383 1387 
1383 1390 
1384 1388 
1384 1389 
1385 1387 
1385 1389 
1386 1388 
1386 1390 
1391 1397 
1391 1398 
1392 1399 
1392 1400 
1393 1397 
1393 1400 
1394 1398 
1394 1399 
1395 1397 
1395 1399 
1396 1398 
1396 1400 
1401 1407 
1401 1408 
1402 1409 
1402 1410 
1403 1407 
1403 1410 
1404 1408 
1404 1409 
1405 1407 
1405 1409 
1406 1408 
1406 1410 
1411 1417 
1411 1418 
1412 1419 
1412 1420 
1413 1417 
1413 1420 
1414 1418 
1414 1419 
1415 1417 
1415 1419 
1416 1418 
1416 1420 
1421 1427 
1421 1428 
1422 1429 
1422 1430 
1423 1427 
1423 1430 
1424 1428 
1424 1429 
1425 1427 
1425 1429 
1425 1715 
1426 1428 
1426 1430 
1426 1716 
1431 1437 
1431 1438 
1432 1439 
1432 1440 
1433 1437 
1433 1440 
1434 1438 
1434 1439 
1435 1437 
1435 1439 
1435 1663 
1436 1438 
1436 1440 
1436 1664 
1441 1447 
1441 1448 
1442 1449 
1442 1450 
1443 1447 
1443 1450 
1444 1448 
1444 1449 
1445 1447 
1445 1449 
1445 1653 
1446 1448 
1446 1450 
1446 1654 
1451 1457 
1451 1458 
1452 1459 
1452 1460 
1453 1457 
1453 1460 
1453 1733 
1454 1458 
1454 1459 
1454 1734 
1455 1457 
1455 1459 
1455 1765 
1456 1458 
1456 1460 
1456 1766 
1461 1467 
1461 1468 
1462 1469 
1462 1470 
1463 1467 
1463 1470 
1464 1468 
1464 1469 
1465 1467 
1465 1469 
1466 1468 
1466 1470 
1471 1477 
1471 1478 
1472 1479 
1472 1480 
1473 1477 
1473 1480 
1474 1478 
1474 1479 
1475 1477 
1475 1479 
1475 1785 
1476 1478 
1476 1480 
1476 1786 
1481 1487 
1481 1488 
1482 1489 
1482 1490 
1483 1487 
1483 1490 
1484 1488 
1484 1489 
1485 1487 
1485 1489 
1486 1488 
1486 1490 
1491 1497 
1491 1498 
1492 1499 
1492 1500 
1493 1497 
1493 1500 
1494 1498 
1494 1499 
1495 1497 
1495 1499 
1495 1575 
1496 1498 
1496 1500 
1496 1576 
1501 1507 
1501 1508 
1502 1509 
1502 1510 
1503 1507 
1503 1510 
1504 1508 
1504 1509 
1505 1507 
1505 1509 
1505 1695 
1506 1508 
1506 1510 
1506 1696 
1511 1517 
1511 1518 
1512 1519 
1512 1520 
1513 1517 
1513 1520 
1514 1518 
1514 1519 
1515 1517 
1515 1519 
1516 1518 
1516 1520 
1521 1527 
1521 1528 
1522 1529 
1522 1530 
1523 1527 
1523 1530 
1524 1528 
1524 1529 
1525 1527 
1525 1529 
1526 1528 
1526 1530 
1531 1537 
1531 1538 
1532 1539 
1532 1540 
1533 1537 
1533 1540 
1534 1538 
1534 1539 
1535 1537 
1535 1539 
1535 1543 
1536 1538 
1536 1540 
1536 1544 
1541 1547 
1541 1548 
1542 1549 
1542 1550 
1543 1547 
1543 1550 
1544 1548 
1544 1549 
1545 1547 
1545 1549 
1545 1735 
1546 1548 
1546 1550 
1546 1736 
1551 1557 
1551 1558 
1552 1559 
1552 1560 
1553 1557 
1553 1560 
1554 1558 
1554 1559 
1555 1557 
1555 1559 
1556 1558 
1556 1560 
1561 1567 
1561 1568 
1562 1569 
1562 1570 
1563 1567 
1563 1570 
1564 1568 
1564 1569 
1565 1567 
1565 1569 
1566 1568 
1566 1570 
1571 1577 
1571 1578 
1572 1579 
1572 1580 
1573 1577 
1573 1580 
1574 1578 
1574 1579 
1575 1577 
1575 1579 
1576 1578 
1576 1580 
1581 1587 
1581 1588 
1582 1589 
1582 1590 
1583 1587 
1583 1590 
1584 1588 
1584 1589 
1585 1587 
1585 1589 
1586 1588 
1586 1590 
1591 1597 
1591 1598 
1592 1599 
1592 1600 
1593 1597 
1593 1600 
1594 1598 
1594 1599 
1595 1597 
1595 1599 
1595 1635 
1596 1598 
1596 1600 
1596 1636 
1601 1607 
1601 1608 
1602 1609 
1602 1610 
1603 1607 
1603 1610 
1604 1608 
1604 1609 
1605 1607 
1605 1609 
1605 1815 
1606 1608 
1606 1610 
1606 1816 
1611 1617 
1611 1618 
1612 1619 
1612 1620 
1613 1617 
1613 1620 
1614 1618 
1614 1619 
1615 1617 
1615 1619 
1615 1775 
1616 1618 
1616 1620 
1616 1776 
1621 1627 
1621 1628 
1622 1629 
1622 1630 
1623 1627 
1623 1630 
1624 1628 
1624 1629 
1625 1627 
1625 1629 
1626 1628 
1626 1630 
1631 1637 
1631 1638 
1632 1639 
1632 1640 
1633 1637 
1633 1640 
1634 1638 
1634 1639 
1635 1637 
1635 1639 
1636 1638 
1636 1640 
1641 1647 
1641 1648 
1642 1649 
1642 1650 
1643 1647 
1643 1650 
1643 1795 
1644 1648 
1644 1649 
1644 1796 
1645 1647 
1645 1649 
1645 1803 
1646 1648 
1646 1650 
1646 1804 
1651 1657 
1651 1658 
1652 1659 
1652 1660 
1653 1657 
1653 1660 
1654 1658 
1654 1659 
1655 1657 
1655 1659 
1655 1825 
1656 1658 
1656 1660 
1656 1826 
1661 1667 
1661 1668 
1662 1669 
1662 1670 
1663 1667 
1663 1670 
1664 1668 
1664 1669 
1665 1667 
1665 1669 
1665 1683 
1666 1668 
1666 1670 
1666 1684 
1671 1677 
1671 1678 
1672 1679 
1672 1680 
1673 1677 
1673 1680 
1674 1678 
1674 1679 
1675 1677 
1675 1679 
1676 1678 
1676 1680 
1681 1687 
1681 1688 
1682 1689 
1682 1690 
1683 1687 
1683 1690 
1684 1688 
1684 1689 
1685 1687 
1685 1689 
1685 1805 
1686 1688 
1686 1690 
1686 1806 
1691 1697 
1691 1698 
1692 1699 
1692 1700 
1693 1697 
1693 1700 
1694 1698 
1694 1699 
1695 1697 
1695 1699 
1696 1698 
1696 1700 
1701 1707 
1701 1708 
1702 1709 
1702 1710 
1703 1707 
1703 1710 
1704 1708 
1704 1709 
1705 1707 
1705 1709 
1706 1708 
1706 1710 
1711 1717 
1711 1718 
1712 1719 
1712 1720 
1713 1717 
1713 1720 
1714 1718 
1714 1719 
1715 1717 
1715 1719 
1716 1718 
1716 1720 
1721 1727 
1721 1728 
1722 1729 
1722 1730 
1723 1727 
1723 1730 
1724 1728 
1724 1729 
1725 1727 
1725 1729 
1726 1728 
1726 1730 
1731 1737 
1731 1738 
1732 1739 
1732 1740 
1733 1737 
1733 1740 
1734 1738 
1734 1739 
1735 1737 
1735 1739 
1736 1738 
1736 1740 
1741 1747 
1741 1748 
1742 1749 
1742 1750 
1743 1747 
1743 1750 
1744 1748 
1744 1749 
1745 1747 
1745 1749 
1746 1748 
1746 1750 
1751 1757 
1751 1758 
1752 1759 
1752 1760 
1753 1757 
1753 1760 
1754 1758 
1754 1759 
1755 1757 
1755 1759 
1756 1758 
1756 1760 
1761 1767 
1761 1768 
1762 1769 
1762 1770 
1763 1767 
1763 1770 
1764 1768 
1764 1769 
1765 1767 
1765 1769 
1766 1768 
1766 1770 
1771 1777 
1771 1778 
1772 1779 
1772 1780 
1773 1777 
1773 1780 
1774 1778 
1774 1779 
1775 1777 
1775 1779 
1776 1778 
1776 1780 
1781 1787 
1781 1788 
1782 1789 
1782 1790 
1783 1787 
1783 1790 
1784 1788 
1784 1789 
1785 1787 
1785 1789 
1786 1788 
1786 1790 
1791 1797 
1791 1798 
1792 1799 
1792 1800 
1793 1797 
1793 1800 
1794 1798 
1794 1799 
1795 1797 
1795 1799 
1796 1798 
1796 1800 
1801 1807 
1801 1808 
1802 1809 
1802 1810 
1803 1807 
1803 1810 
1804 1808 
1804 1809 
1805 1807 
1805 1809 
1806 1808 
1806 1810 
1811 1817 
1811 1818 
1812 1819 
1812 1820 
1813 1817 
1813 1820 
1814 1818 
1814 1819 
1815 1817 
1815 1819 
1816 1818 
1816 1820 
1821 1827 
1821 1828 
1822 1829 
1822 1830 
1823 1827 
1823 1830 
1824 1828 
1824 1829 
1825 1827 
1825 1829 
1826 1828 
1826 1830 
1831 1837 
1831 1838 
1832 1839 
1832 1840 
1833 1837 
1833 1840 
1834 1838 
1834 1839 
1835 1837 
1835 1839 
1836 1838 
1836 1840 
